(set-logic HORN)
(declare-fun state (Int Int Int Bool Int (Array Int Int) Int (Array Int Int) Bool (Array Int Int) (Array Int Int) Int Int Bool Int Int (Array Int Int) (Array Int Int) Int Int Int) Bool)
(assert (forall ((|.x.14| Int) (|main@%.0.i_0_0| Int) (|main@%_3_0_0| Int) (|main@%assume.flag.0_0_0| Bool) (|main@%_6_0_0| Int) (|main@%shadow.mem.1_0_0| (Array Int Int)) (|main@%_7_0_0| Int) (|main@%shadow.mem1.1_0_0| (Array Int Int)) (|main@%_5_0_0| Bool) (|main@%_16_0_0| (Array Int Int)) (|main@%_12_0_0| (Array Int Int)) (|main@%.13.i1_0_0| Int) (|main@%.01.i2_0_0| Int) (|main@%_4_0_0| Bool) (|@nd_char_0_0| Int) (|main@%.02.i3_0_0| Int) (|main@%shadow.mem.0_0_0| (Array Int Int)) (|main@%shadow.mem1.0_0_0| (Array Int Int)) (|@nd_0_0| Int) (|main@%_14_0| Int) (|main@%_10_0| Int) (|.x.24| Int) (|.x.25| Int) (|main@%_7_1| Int) (|main@%_6_1| Int) (|main@%_3_1| Int) (|main@%_4_1| Bool) (|main@%_5_1| Bool) (|.x.20| (Array Int Int)) (|.x.21| (Array Int Int)) (|main@%.02.i3_2| Int) (|.x.15| Int) (|.x.16| Int) (|.x.17| Bool) (|.x.18| (Array Int Int)) (|.x.19| (Array Int Int)) (|main@%shadow.mem.0_2| (Array Int Int)) (|main@%shadow.mem1.0_2| (Array Int Int)) (|.x.23| Int) (|.x.22| Int) (|.xtv.1| Int) (|.xtv.2| Int)) (=> (= .x.14 0) (state |.x.14| |main@%.0.i_0_0| |main@%_3_0_0| |main@%assume.flag.0_0_0| |main@%_6_0_0| |main@%shadow.mem.1_0_0| |main@%_7_0_0| |main@%shadow.mem1.1_0_0| |main@%_5_0_0| |main@%_16_0_0| |main@%_12_0_0| |main@%.13.i1_0_0| |main@%.01.i2_0_0| |main@%_4_0_0| |@nd_char_0_0| |main@%.02.i3_0_0| |main@%shadow.mem.0_0_0| |main@%shadow.mem1.0_0_0| |@nd_0_0| |main@%_14_0| |main@%_10_0|))))
(assert (forall ((|.x.14| Int) (|main@%.0.i_0_0| Int) (|main@%_3_0_0| Int) (|main@%assume.flag.0_0_0| Bool) (|main@%_6_0_0| Int) (|main@%shadow.mem.1_0_0| (Array Int Int)) (|main@%_7_0_0| Int) (|main@%shadow.mem1.1_0_0| (Array Int Int)) (|main@%_5_0_0| Bool) (|main@%_16_0_0| (Array Int Int)) (|main@%_12_0_0| (Array Int Int)) (|main@%.13.i1_0_0| Int) (|main@%.01.i2_0_0| Int) (|main@%_4_0_0| Bool) (|@nd_char_0_0| Int) (|main@%.02.i3_0_0| Int) (|main@%shadow.mem.0_0_0| (Array Int Int)) (|main@%shadow.mem1.0_0_0| (Array Int Int)) (|@nd_0_0| Int) (|main@%_14_0| Int) (|main@%_10_0| Int) (|.x.24| Int) (|.x.25| Int) (|main@%_7_1| Int) (|main@%_6_1| Int) (|main@%_3_1| Int) (|main@%_4_1| Bool) (|main@%_5_1| Bool) (|.x.20| (Array Int Int)) (|.x.21| (Array Int Int)) (|main@%.02.i3_2| Int) (|.x.15| Int) (|.x.16| Int) (|.x.17| Bool) (|.x.18| (Array Int Int)) (|.x.19| (Array Int Int)) (|main@%shadow.mem.0_2| (Array Int Int)) (|main@%shadow.mem1.0_2| (Array Int Int)) (|.x.23| Int) (|.x.22| Int) (|.xtv.1| Int) (|.xtv.2| Int)) (=> (and (state |.x.14| |main@%.0.i_0_0| |main@%_3_0_0| |main@%assume.flag.0_0_0| |main@%_6_0_0| |main@%shadow.mem.1_0_0| |main@%_7_0_0| |main@%shadow.mem1.1_0_0| |main@%_5_0_0| |main@%_16_0_0| |main@%_12_0_0| |main@%.13.i1_0_0| |main@%.01.i2_0_0| |main@%_4_0_0| |@nd_char_0_0| |main@%.02.i3_0_0| |main@%shadow.mem.0_0_0| |main@%shadow.mem1.0_0_0| |@nd_0_0| |main@%_14_0| |main@%_10_0|) (let ((.def_56 (= main@%_16_0_0 .x.20))) (let ((.def_59 (= main@%_12_0_0 .x.21))) (let ((.def_65 (= .x.15 1))) (let ((.def_68 (= main@%.0.i_0_0 .x.16))) (let ((.def_71 (= main@%assume.flag.0_0_0 .x.17))) (let ((.def_74 (= main@%shadow.mem.1_0_0 .x.18))) (let ((.def_77 (= main@%shadow.mem1.1_0_0 .x.19))) (let ((.def_81 (= .x.16 0))) (let ((.def_86 (= .x.15 3))) (let ((.def_88 (= main@%.02.i3_0_0 main@%.02.i3_2))) (let ((.def_91 (= main@%shadow.mem.0_0_0 main@%shadow.mem.0_2))) (let ((.def_94 (= main@%shadow.mem1.0_0_0 main@%shadow.mem1.0_2))) (let ((.def_101 (<= (+ main@%_3_0_0 (* (- 1) main@%.02.i3_0_0)) 1))) (let ((.def_118 (= .x.20 (store main@%shadow.mem1.0_0_0 (+ main@%_7_0_0 main@%.02.i3_0_0) main@%_14_0)))) (let ((.def_120 (<= main@%_7_0_0 0))) (let ((.def_121 (not .def_120))) (let ((.def_125 (or .def_120 (not (<= (+ main@%_7_0_0 main@%.02.i3_0_0) 0))))) (let ((.def_129 (= .x.21 (store main@%shadow.mem.0_0_0 (+ main@%_6_0_0 main@%.02.i3_0_0) main@%_10_0)))) (let ((.def_131 (<= main@%_6_0_0 0))) (let ((.def_132 (not .def_131))) (let ((.def_136 (or .def_131 (not (<= (+ main@%_6_0_0 main@%.02.i3_0_0) 0))))) (let ((.def_138 (= .x.14 1))) (let ((.def_140 (= main@%_3_0_0 main@%_3_1))) (let ((.def_142 (= main@%_6_0_0 main@%_6_1))) (let ((.def_144 (= main@%_7_0_0 main@%_7_1))) (let ((.def_146 (= main@%_5_0_0 main@%_5_1))) (let ((.def_148 (= main@%_4_0_0 main@%_4_1))) (let ((.def_152 (= main@%.01.i2_0_0 .x.23))) (let ((.def_154 (= main@%.13.i1_0_0 .x.22))) (let ((.def_155 (and .def_152 .def_154))) (let ((.def_182 (= .x.15 2))) (let ((.def_214 (<= (+ main@%_3_0_0 (* (- 1) main@%.13.i1_0_0)) 1))) (let ((.def_224 (ite (= (select main@%_12_0_0 (+ main@%_6_0_0 main@%.13.i1_0_0)) (select main@%_16_0_0 (+ main@%_7_0_0 main@%.13.i1_0_0))) main@%.01.i2_0_0 0))) (let ((.def_247 (or .def_120 (not (<= (+ main@%_7_0_0 main@%.13.i1_0_0) 0))))) (let ((.def_251 (or .def_131 (not (<= (+ main@%_6_0_0 main@%.13.i1_0_0) 0))))) (let ((.def_253 (= .x.14 2))) (let ((.def_289 (not (<= main@%_3_0_0 main@%.0.i_0_0)))) (let ((.def_314 (= (select main@%shadow.mem.1_0_0 (+ main@%.0.i_0_0 main@%_6_0_0)) (select main@%shadow.mem1.1_0_0 (+ main@%.0.i_0_0 main@%_7_0_0))))) (let ((.def_318 (or .def_120 (not (<= (+ main@%.0.i_0_0 main@%_7_0_0) 0))))) (let ((.def_322 (or .def_131 (not (<= (+ main@%.0.i_0_0 main@%_6_0_0) 0))))) (let ((.def_324 (= .x.14 3))) (and (and (= @nd_char_0_0 .x.24) (= @nd_0_0 .x.25)) (or (or (or (or (or (or (and (or (and (and (and (and (= .x.14 0) (and (not (<= main@%_7_1 0)) (and (not (<= main@%_6_1 0)) (and (= (not (<= main@%_3_1 0)) main@%_4_1) (= main@%_4_1 main@%_5_1))))) .def_56) .def_59) (or (and (= main@%.02.i3_2 0) (and (and (and (and (and main@%_4_1 .def_65) .def_68) .def_71) .def_74) .def_77)) (and (and (and (and (and (and (= main@%_5_1 .x.17) .def_81) (not main@%_4_1)) .def_86) .def_88) .def_91) .def_94))) (and (and (and (and (and (and (and (and (and (and (and (and (and (not .def_101) (and (= .x.20 main@%shadow.mem1.0_2) (and (= (+ main@%.02.i3_0_0 (* (- 1) main@%.02.i3_2)) (- 1)) (and (= .x.21 main@%shadow.mem.0_2) (and .def_77 (and .def_74 (and .def_71 (and .def_65 .def_68)))))))) .def_118) .def_121) .def_125) .def_129) .def_132) .def_136) .def_138) .def_140) .def_142) .def_144) .def_146) .def_148)) .def_155) (and (and (= .x.22 0) (and (= .x.23 1) (and .def_148 (and .def_146 (and .def_144 (and .def_142 (and .def_140 (and .def_138 (and .def_136 (and .def_132 (and .def_129 (and .def_125 (and .def_121 (and .def_118 (and .def_101 (and .def_94 (and .def_91 (and .def_88 (and .def_77 (and .def_74 (and .def_71 (and main@%_4_0_0 .def_68)))))))))))))))))))))) .def_182)) (and (not main@%_4_0_0) (and (= .x.20 .x.19) (and (= .x.21 .x.18) (and (= main@%_5_0_0 .x.17) (and .def_148 (and .def_146 (and .def_144 (and .def_142 (and .def_140 (and .def_138 (and .def_136 (and .def_132 (and .def_129 (and .def_125 (and .def_121 (and .def_118 (and .def_101 (and .def_94 (and .def_91 (and .def_88 (and .def_86 (and .def_81 .def_155))))))))))))))))))))))) (and (and (and (and (not .def_214) (and (= (+ main@%.13.i1_0_0 (* (- 1) .x.22)) (- 1)) (and (= .x.23 .def_224) (and .def_182 (and .def_148 (and .def_146 (and .def_144 (and .def_142 (and .def_140 (and .def_132 (and .def_121 (and .def_94 (and .def_91 (and .def_88 (and .def_59 (and .def_56 (and .def_77 (and .def_74 (and .def_68 .def_71))))))))))))))))))) .def_247) .def_251) .def_253)) (and (= main@%_16_0_0 .x.19) (and (= main@%_12_0_0 .x.18) (and (= .x.17 (and main@%_5_0_0 (not (= .def_224 0)))) (and .def_253 (and .def_251 (and .def_247 (and .def_214 (and .def_148 (and .def_146 (and .def_144 (and .def_142 (and .def_140 (and .def_132 (and .def_121 (and .def_94 (and .def_91 (and .def_88 (and .def_86 (and .def_81 (and .def_152 (and .def_154 (and .def_56 .def_59))))))))))))))))))))))) (and (and (and (and (and (= (+ main@%.0.i_0_0 (* (- 1) .x.16)) (- 1)) (and (= .x.17 (and main@%assume.flag.0_0_0 .def_289)) (and .def_148 (and .def_146 (and .def_144 (and .def_142 (and .def_140 (and .def_132 (and .def_121 (and .def_94 (and .def_91 (and .def_88 (and .def_86 (and .def_152 (and .def_154 (and .def_59 (and .def_56 (and .def_74 .def_77)))))))))))))))))) .def_314) .def_318) .def_322) .def_324)) (and (= .x.15 4) (and (not .def_314) (and .def_324 (and .def_322 (and .def_318 (and .def_289 (and .def_148 (and .def_146 (and .def_144 (and .def_142 (and .def_140 (and .def_132 (and .def_121 (and .def_94 (and .def_91 (and .def_88 (and .def_152 (and .def_154 (and .def_59 (and .def_56 (and .def_77 (and .def_74 (and .def_71 (and main@%assume.flag.0_0_0 .def_68)))))))))))))))))))))))))))))))))))))))))))))))))))))))))))))))))))) (state |.x.15| |.x.16| |main@%_3_1| |.x.17| |main@%_6_1| |.x.18| |main@%_7_1| |.x.19| |main@%_5_1| |.x.20| |.x.21| |.x.22| |.x.23| |main@%_4_1| |.x.24| |main@%.02.i3_2| |main@%shadow.mem.0_2| |main@%shadow.mem1.0_2| |.x.25| |.xtv.1| |.xtv.2|))))
(assert (forall ((|.x.14| Int) (|main@%.0.i_0_0| Int) (|main@%_3_0_0| Int) (|main@%assume.flag.0_0_0| Bool) (|main@%_6_0_0| Int) (|main@%shadow.mem.1_0_0| (Array Int Int)) (|main@%_7_0_0| Int) (|main@%shadow.mem1.1_0_0| (Array Int Int)) (|main@%_5_0_0| Bool) (|main@%_16_0_0| (Array Int Int)) (|main@%_12_0_0| (Array Int Int)) (|main@%.13.i1_0_0| Int) (|main@%.01.i2_0_0| Int) (|main@%_4_0_0| Bool) (|@nd_char_0_0| Int) (|main@%.02.i3_0_0| Int) (|main@%shadow.mem.0_0_0| (Array Int Int)) (|main@%shadow.mem1.0_0_0| (Array Int Int)) (|@nd_0_0| Int) (|main@%_14_0| Int) (|main@%_10_0| Int) (|.x.24| Int) (|.x.25| Int) (|main@%_7_1| Int) (|main@%_6_1| Int) (|main@%_3_1| Int) (|main@%_4_1| Bool) (|main@%_5_1| Bool) (|.x.20| (Array Int Int)) (|.x.21| (Array Int Int)) (|main@%.02.i3_2| Int) (|.x.15| Int) (|.x.16| Int) (|.x.17| Bool) (|.x.18| (Array Int Int)) (|.x.19| (Array Int Int)) (|main@%shadow.mem.0_2| (Array Int Int)) (|main@%shadow.mem1.0_2| (Array Int Int)) (|.x.23| Int) (|.x.22| Int) (|.xtv.1| Int) (|.xtv.2| Int)) (=> (state |.x.14| |main@%.0.i_0_0| |main@%_3_0_0| |main@%assume.flag.0_0_0| |main@%_6_0_0| |main@%shadow.mem.1_0_0| |main@%_7_0_0| |main@%shadow.mem1.1_0_0| |main@%_5_0_0| |main@%_16_0_0| |main@%_12_0_0| |main@%.13.i1_0_0| |main@%.01.i2_0_0| |main@%_4_0_0| |@nd_char_0_0| |main@%.02.i3_0_0| |main@%shadow.mem.0_0_0| |main@%shadow.mem1.0_0_0| |@nd_0_0| |main@%_14_0| |main@%_10_0|) (not (= .x.14 4)))))
(check-sat)
